50	474484

2832 3821
8936 9917
1738 2737
5645 6661
6478 7475
340 1321
3465 4454
4368 5376
3988 4982
2753 3757
5065 6059
2664 3658
7627 8642
2775 3781
9289 10275
7252 8259
9594 10578
7958 8970
2659 3646
6157 7143
8521 9502
1844 2854
8871 9875
8853 9836
6993 8008
7103 8098
234 1237
3295 4279
1113 2097
2975 3975
2592 3611
5669 6671
5458 6466
7219 8223
3345 4335
556 1540
3415 4396
2548 3528
5954 6954
4396 5403
8364 9371
9757 10774
6 1016
3012 4026
215 1219
249 1237
1365 2375
8861 9855
4514 5533
8362 9375
